\Generated by Cardinal Operations

Minimize
   2077.058672521021 x_0_0 + 54.33526480458508 x_0_2 
   + 36.17284629162332 x_0_5 + 169.3302692658878 x_0_8 
   + 2077.058672521021 x_1_0 + 1141.040560896286 x_1_2 
   + 651.1112332492198 x_1_5 + 8.063346155518467 x_1_8 
   + 79.9210295982608 x_2_0 + 474.2450913100667 x_2_1 
   + 1477.067628910661 x_2_2 + 22.58309958619365 x_2_3 
   + 474.2450913100667 x_2_4 + 41.1065969622511 x_2_5 
   + 474.2450913100667 x_2_6 + 474.2450913100667 x_2_7 
   + 624.162539502301 x_2_8 + 474.2450913100667 x_2_9 
   + 1659.336929105112 x_3_0 + 57.20541468776147 x_3_1 
   + 186.1519048103841 x_3_2 + 1201.313708442991 x_3_3 
   + 1029.697464379706 x_3_4 + 41.82210594495074 x_3_5 
   + 57.20541468776147 x_3_6 + 1201.313708442991 x_3_7 
   + 884.5633870657458 x_3_8 + 1029.697464379706 x_3_9 
   + 1297.256704085831 x_4_0 + 77.76629131320436 x_4_1 
   + 24.26760227579214 x_4_2 + 1399.793243637678 x_4_3 
   + 77.76629131320436 x_4_4 + 53.91161728496604 x_4_5 
   + 1399.793243637678 x_4_6 + 77.76629131320436 x_4_7 
   + 1255.115148013589 x_4_8 + 1399.793243637678 x_4_9 
   + 1998.909065872457 x_5_0 + 985.316543569534 x_5_1 
   + 2.854168688581464 x_5_2 + 1149.53596749779 x_5_3 
   + 985.316543569534 x_5_4 + 730.6923647662475 x_5_5 
   + 54.73980797608523 x_5_6 + 985.316543569534 x_5_7 
   + 46.80310220646327 x_5_8 + 1149.53596749779 x_5_9 
   + 1780.336005018018 x_6_0 + 1141.040560896286 x_6_2 
   + 36.17284629162332 x_6_5 + 8.063346155518467 x_6_8 
   + 75.40935896233042 x_7_0 + 1338.198729072191 x_7_1 
   + 21.39134598719533 x_7_2 + 74.34437383734394 x_7_3 
   + 74.34437383734394 x_7_4 + 937.3506239061464 x_7_5 
   + 1338.198729072191 x_7_6 + 1338.198729072191 x_7_7 
   + 1392.118658138377 x_7_8 + 1338.198729072191 x_7_9 
   + 98.90755583433432 x_8_0 + 978.0347664825314 x_8_2 
   + 651.1112332492198 x_8_5 + 169.3302692658878 x_8_8 
   + 2077.058672521021 x_9_0 + 54.33526480458508 x_9_2 
   + 36.17284629162332 x_9_5 + 145.1402307993324 x_9_8 
Subject To
 demand_constraint: x_0_0 + x_1_0 + x_2_0 + x_3_0 + x_4_0 + x_5_0 + x_6_0 
   + x_7_0 + x_8_0 + x_9_0 >= 45
 x_0_1 + x_1_1 + x_2_1 + x_3_1 + x_4_1 + x_5_1 + x_6_1 + x_7_1 + x_8_1 
   + x_9_1 >= 23
 x_0_2 + x_1_2 + x_2_2 + x_3_2 + x_4_2 + x_5_2 + x_6_2 + x_7_2 + x_8_2 
   + x_9_2 >= 94
 x_0_3 + x_1_3 + x_2_3 + x_3_3 + x_4_3 + x_5_3 + x_6_3 + x_7_3 + x_8_3 
   + x_9_3 >= 92
 x_0_4 + x_1_4 + x_2_4 + x_3_4 + x_4_4 + x_5_4 + x_6_4 + x_7_4 + x_8_4 
   + x_9_4 >= 57
 x_0_5 + x_1_5 + x_2_5 + x_3_5 + x_4_5 + x_5_5 + x_6_5 + x_7_5 + x_8_5 
   + x_9_5 >= 52
 x_0_6 + x_1_6 + x_2_6 + x_3_6 + x_4_6 + x_5_6 + x_6_6 + x_7_6 + x_8_6 
   + x_9_6 >= 23
 x_0_7 + x_1_7 + x_2_7 + x_3_7 + x_4_7 + x_5_7 + x_6_7 + x_7_7 + x_8_7 
   + x_9_7 >= 99
 x_0_8 + x_1_8 + x_2_8 + x_3_8 + x_4_8 + x_5_8 + x_6_8 + x_7_8 + x_8_8 
   + x_9_8 >= 99
 x_0_9 + x_1_9 + x_2_9 + x_3_9 + x_4_9 + x_5_9 + x_6_9 + x_7_9 + x_8_9 
   + x_9_9 >= 77
 capacity_constraint: x_0_0 + x_0_1 + x_0_2 + x_0_3 + x_0_4 + x_0_5 + x_0_6 
   + x_0_7 + x_0_8 + x_0_9 <= 127
 x_1_0 + x_1_1 + x_1_2 + x_1_3 + x_1_4 + x_1_5 + x_1_6 + x_1_7 + x_1_8 
   + x_1_9 <= 236
 x_2_0 + x_2_1 + x_2_2 + x_2_3 + x_2_4 + x_2_5 + x_2_6 + x_2_7 + x_2_8 
   + x_2_9 <= 168
 x_3_0 + x_3_1 + x_3_2 + x_3_3 + x_3_4 + x_3_5 + x_3_6 + x_3_7 + x_3_8 
   + x_3_9 <= 115
 x_4_0 + x_4_1 + x_4_2 + x_4_3 + x_4_4 + x_4_5 + x_4_6 + x_4_7 + x_4_8 
   + x_4_9 <= 280
 x_5_0 + x_5_1 + x_5_2 + x_5_3 + x_5_4 + x_5_5 + x_5_6 + x_5_7 + x_5_8 
   + x_5_9 <= 179
 x_6_0 + x_6_1 + x_6_2 + x_6_3 + x_6_4 + x_6_5 + x_6_6 + x_6_7 + x_6_8 
   + x_6_9 <= 135
 x_7_0 + x_7_1 + x_7_2 + x_7_3 + x_7_4 + x_7_5 + x_7_6 + x_7_7 + x_7_8 
   + x_7_9 <= 263
 x_8_0 + x_8_1 + x_8_2 + x_8_3 + x_8_4 + x_8_5 + x_8_6 + x_8_7 + x_8_8 
   + x_8_9 <= 283
 x_9_0 + x_9_1 + x_9_2 + x_9_3 + x_9_4 + x_9_5 + x_9_6 + x_9_7 + x_9_8 
   + x_9_9 <= 476
END

